data/CVRPLIB/Vrp-Set-XML100/instances/XML100_2312_07.vrp
NAME : XML100_2312_07
COMMENT : Generated by Queiroga, Sadykov, Uchoa, and Vidal (2021)
TYPE : CVRP
DIMENSION : 101
EDGE_WEIGHT_TYPE : EUC_2D
CAPACITY : 5
NODE_COORD_SECTION
1    500  500 
2    514  838 
3    228  721 
4    380  355 
5    688  380 
6    360  958 
7    411  554 
8    412  443 
9    96   644 
10   187  681 
11   307  725 
12   354  892 
13   214  61  
14   190  632 
15   249  668 
16   390  947 
17   147  602 
18   888  555 
19   428  444 
20   831  201 
21   517  435 
22   390  451 
23   116  467 
24   882  511 
25   694  508 
26   80   267 
27   423  975 
28   849  543 
29   224  607 
30   198  758 
31   940  425 
32   487  418 
33   247  382 
34   692  866 
35   466  420 
36   287  433 
37   787  273 
38   914  507 
39   741  109 
40   371  411 
41   746  585 
42   431  369 
43   96   45  
44   200  72  
45   429  893 
46   834  558 
47   207  655 
48   473  60  
49   404  528 
50   881  518 
51   619  906 
52   709  280 
53   137  714 
54   764  975 
55   430  425 
56   169  135 
57   115  851 
58   914  517 
59   263  408 
60   871  809 
61   832  503 
62   172  693 
63   784  739 
64   938  435 
65   529  556 
66   898  866 
67   766  780 
68   368  509 
69   407  450 
70   152  619 
71   446  46  
72   996  975 
73   418  834 
74   446  1000
75   351  474 
76   122  546 
77   509  462 
78   485  483 
79   179  136 
80   981  852 
81   357  556 
82   168  426 
83   634  670 
84   292  724 
85   974  889 
86   507  989 
87   876  399 
88   383  453 
89   788  318 
90   903  601 
91   419  432 
92   85   587 
93   789  812 
94   375  295 
95   726  473 
96   103  603 
97   428  358 
98   293  800 
99   121  930 
100  548  276 
101  812  585 
DEMAND_SECTION
1    0   
2    1   
3    1   
4    1   
5    1   
6    1   
7    1   
8    1   
9    1   
10   1   
11   1   
12   1   
13   1   
14   1   
15   1   
16   1   
17   1   
18   1   
19   1   
20   1   
21   1   
22   1   
23   1   
24   1   
25   1   
26   1   
27   1   
28   1   
29   1   
30   1   
31   1   
32   1   
33   1   
34   1   
35   1   
36   1   
37   1   
38   1   
39   1   
40   1   
41   1   
42   1   
43   1   
44   1   
45   1   
46   1   
47   1   
48   1   
49   1   
50   1   
51   1   
52   1   
53   1   
54   1   
55   1   
56   1   
57   1   
58   1   
59   1   
60   1   
61   1   
62   1   
63   1   
64   1   
65   1   
66   1   
67   1   
68   1   
69   1   
70   1   
71   1   
72   1   
73   1   
74   1   
75   1   
76   1   
77   1   
78   1   
79   1   
80   1   
81   1   
82   1   
83   1   
84   1   
85   1   
86   1   
87   1   
88   1   
89   1   
90   1   
91   1   
92   1   
93   1   
94   1   
95   1   
96   1   
97   1   
98   1   
99   1   
100  1   
101  1   
DEPOT_SECTION
1
-1
EOF
