data/CVRPLIB/Vrp-Set-XML100/solutions/XML100_2312_07.sol
Route #1: 99 38 19 36 51
Route #2: 9 61 52 83 10
Route #3: 41 96 3 39 21
Route #4: 72 44 15 5 11
Route #5: 16 95 91 8 69
Route #6: 14 46 13 28 80
Route #7: 97 98 56 29 2
Route #8: 79 84 71 65 59
Route #9: 77 34 31 20 76
Route #10: 100 89 17 27 45
Route #11: 60 23 37 57 49
Route #12: 6 48 67 74 87
Route #13: 75 22 81 58 35
Route #14: 33 53 92 66 62
Route #15: 68 7 90 54 18
Route #16: 64 82 40 94 24
Route #17: 93 43 12 70 47
Route #18: 63 30 86 88 4
Route #19: 1 26 73 85 50
Route #20: 32 25 42 55 78
Cost 17616
